
******************************************************************************
This program contains Ipopt, a library for large-scale nonlinear optimization.
 Ipopt is released as open source code under the Eclipse Public License (EPL).
         For more information visit http://projects.coin-or.org/Ipopt

This version of Ipopt was compiled from source code available at
    https://github.com/IDAES/Ipopt as part of the Institute for the Design of
    Advanced Energy Systems Process Systems Engineering Framework (IDAES PSE
    Framework) Copyright (c) 2018-2019. See https://github.com/IDAES/idaes-pse.

This version of Ipopt was compiled using HSL, a collection of Fortran codes
    for large-scale scientific computation.  All technical papers, sales and
    publicity material resulting from use of the HSL codes within IPOPT must
    contain the following acknowledgement:
        HSL, a collection of Fortran codes for large-scale scientific
        computation. See http://www.hsl.rl.ac.uk.
******************************************************************************

This is Ipopt version 3.13.2, running with linear solver ma27.

Number of nonzeros in equality constraint Jacobian...:      958
Number of nonzeros in inequality constraint Jacobian.:        0
Number of nonzeros in Lagrangian Hessian.............:      832

Total number of variables............................:      416
                     variables with only lower bounds:      128
                variables with lower and upper bounds:      224
                     variables with only upper bounds:        0
Total number of equality constraints.................:      415
Total number of inequality constraints...............:        0
        inequality constraints with only lower bounds:        0
   inequality constraints with lower and upper bounds:        0
        inequality constraints with only upper bounds:        0

iter    objective    inf_pr   inf_du lg(mu)  ||d||  lg(rg) alpha_du alpha_pr  ls
   0  0.0000000e+00 2.85e-01 1.55e-14  -1.0 0.00e+00    -  0.00e+00 0.00e+00   0
   1  4.6416410e-03 2.50e-01 5.11e+03  -1.0 4.58e+04    -  7.05e-01 1.25e-01h  1
   2  5.2709758e-03 2.48e-01 5.08e+03  -1.0 1.30e+05    -  8.16e-01 7.19e-03h  1
   3  6.1662837e+00 2.80e-02 7.19e+03  -1.0 1.57e+05    -  7.95e-01 9.90e-01h  1
   4  7.5234464e+00 6.78e-04 2.62e+01  -1.0 1.78e+04    -  9.68e-01 9.90e-01h  1
   5  7.5534188e+00 7.04e-06 8.35e+03  -1.0 3.83e+02    -  9.17e-01 9.90e-01h  1
   6  7.5705087e+00 6.62e-06 4.82e+06  -1.0 3.15e+03    -  4.82e-01 6.19e-02f  5
   7  7.7999224e+00 1.28e-05 9.03e+06  -1.0 2.62e+03    -  2.51e-01 9.90e-01H  1
   8  8.3981730e+00 1.18e-05 1.36e+08  -1.0 6.62e+03    -  8.79e-01 9.90e-01H  1
   9  8.9692145e+00 1.02e-05 2.70e+10  -1.0 6.11e+03    -  7.70e-01 9.90e-01H  1
iter    objective    inf_pr   inf_du lg(mu)  ||d||  lg(rg) alpha_du alpha_pr  ls
  10  9.0992214e+00 1.48e-06 8.52e+08  -1.0 1.37e+03    -  9.90e-01 9.90e-01H  1
  11  7.5296095e+00 8.58e-03 5.75e+12  -2.5 2.09e+04    -  9.86e-01 8.20e-01f  1
  12  7.5378817e+00 4.34e-03 1.01e+14  -2.5 2.05e+02    -  1.00e+00 4.93e-01h  1
In iteration 12, 32 Slacks too small, adjusting variable bounds
  13  7.5537159e+00 1.71e-05 1.36e+12  -2.5 1.88e+02    -  1.00e+00 9.97e-01f  1
  14  7.5537128e+00 2.66e-10 6.25e-02  -2.5 4.56e-02    -  1.00e+00 1.00e+00h  1
  15  7.5505349e+00 3.25e-08 2.61e+13  -9.0 4.07e+01    -  1.00e+00 8.91e-01f  1
  16  7.5505350e+00 3.25e-11 2.78e-03  -9.0 1.27e-03    -  1.00e+00 1.00e+00h  1
  17  7.5505350e+00 2.55e-11 1.39e-03  -9.0 1.26e-07    -  1.00e+00 5.00e-01h  2
  18  7.5505350e+00 2.61e-11 8.51e-12  -9.0 4.84e-07    -  1.00e+00 1.00e+00h  1

Number of Iterations....: 18

                                   (scaled)                 (unscaled)
Objective...............:   7.5505350413045988e+00    7.5505350413045988e+00
Dual infeasibility......:   8.5144898818673887e-12    8.5144898818673887e-12
Constraint violation....:   2.6098234684468480e-11    2.6098234684468480e-11
Complementarity.........:   9.0909102260947442e-10    9.0909102260947442e-10
Overall NLP error.......:   2.6098234684468480e-11    9.0909102260947442e-10


Number of objective function evaluations             = 39
Number of objective gradient evaluations             = 19
Number of equality constraint evaluations            = 39
Number of inequality constraint evaluations          = 0
Number of equality constraint Jacobian evaluations   = 19
Number of inequality constraint Jacobian evaluations = 0
Number of Lagrangian Hessian evaluations             = 18
Total CPU secs in IPOPT (w/o function evaluations)   =      0.029
Total CPU secs in NLP function evaluations           =      0.379

EXIT: Optimal Solution Found.
